c File: instances/34_0.55_3.col
c
c Description: Random graph of size 34 vertices and P(0.5499999999999999) of edges between any two vertices.
p col 34 561
e 1 3
e 1 4
e 1 5
e 1 6
e 1 9
e 1 10
e 1 12
e 1 13
e 1 16
e 1 17
e 1 18
e 1 21
e 1 22
e 1 23
e 1 28
e 1 30
e 1 31
e 1 32
e 1 33
e 2 3
e 2 4
e 2 6
e 2 9
e 2 11
e 2 13
e 2 14
e 2 15
e 2 18
e 2 21
e 2 23
e 2 26
e 2 27
e 2 31
e 2 33
e 3 4
e 3 7
e 3 12
e 3 14
e 3 15
e 3 19
e 3 20
e 3 22
e 3 23
e 3 25
e 3 26
e 3 31
e 3 34
e 4 6
e 4 7
e 4 8
e 4 10
e 4 12
e 4 14
e 4 15
e 4 22
e 4 23
e 4 27
e 4 28
e 4 30
e 5 6
e 5 7
e 5 8
e 5 9
e 5 10
e 5 11
e 5 12
e 5 13
e 5 15
e 5 18
e 5 20
e 5 21
e 5 22
e 5 23
e 5 24
e 5 26
e 5 27
e 5 28
e 5 29
e 5 30
e 5 31
e 5 32
e 6 7
e 6 10
e 6 11
e 6 13
e 6 17
e 6 18
e 6 19
e 6 22
e 6 24
e 6 26
e 6 27
e 6 28
e 6 31
e 6 32
e 6 33
e 6 34
e 7 8
e 7 11
e 7 12
e 7 13
e 7 14
e 7 15
e 7 17
e 7 18
e 7 20
e 7 22
e 7 23
e 7 24
e 7 26
e 7 27
e 7 28
e 7 29
e 7 33
e 7 34
e 8 10
e 8 11
e 8 12
e 8 13
e 8 17
e 8 21
e 8 22
e 8 25
e 8 27
e 8 29
e 8 30
e 8 31
e 8 33
e 9 10
e 9 11
e 9 12
e 9 16
e 9 17
e 9 18
e 9 19
e 9 25
e 9 27
e 9 28
e 9 31
e 10 12
e 10 13
e 10 16
e 10 17
e 10 18
e 10 19
e 10 21
e 10 22
e 10 23
e 10 24
e 10 26
e 10 27
e 10 28
e 10 33
e 10 34
e 11 12
e 11 14
e 11 17
e 11 19
e 11 20
e 11 22
e 11 24
e 11 25
e 11 26
e 11 31
e 11 32
e 11 33
e 11 34
e 12 14
e 12 18
e 12 19
e 12 20
e 12 22
e 12 30
e 12 33
e 13 15
e 13 16
e 13 17
e 13 18
e 13 19
e 13 21
e 13 22
e 13 23
e 13 26
e 13 28
e 13 30
e 13 31
e 13 32
e 13 34
e 14 16
e 14 18
e 14 19
e 14 21
e 14 22
e 14 24
e 14 26
e 14 27
e 14 28
e 14 30
e 14 32
e 14 34
e 15 16
e 15 17
e 15 18
e 15 22
e 15 24
e 15 25
e 15 26
e 15 27
e 15 28
e 15 29
e 15 31
e 15 32
e 15 33
e 16 18
e 16 19
e 16 20
e 16 21
e 16 25
e 16 27
e 16 30
e 16 31
e 16 32
e 16 34
e 17 18
e 17 22
e 17 23
e 17 24
e 17 29
e 17 30
e 17 31
e 17 32
e 17 33
e 17 34
e 18 20
e 18 21
e 18 22
e 18 23
e 18 25
e 18 26
e 18 29
e 18 30
e 18 31
e 18 32
e 18 33
e 19 20
e 19 22
e 19 24
e 19 25
e 19 26
e 19 28
e 19 30
e 19 31
e 19 33
e 20 28
e 20 29
e 20 34
e 21 22
e 21 23
e 21 25
e 21 30
e 21 31
e 21 32
e 21 34
e 22 23
e 22 26
e 22 29
e 22 30
e 22 31
e 22 33
e 22 34
e 23 24
e 23 26
e 23 27
e 23 29
e 23 32
e 24 25
e 24 26
e 24 27
e 24 28
e 24 31
e 24 33
e 25 26
e 25 31
e 25 33
e 25 34
e 26 28
e 26 29
e 26 34
e 27 31
e 27 32
e 27 34
e 28 29
e 28 30
e 28 32
e 29 30
e 29 31
e 29 32
e 29 33
e 30 32
e 31 33
e 32 33
e 32 34
e 33 34